1 3 100 70743.34
1 3 200 71279.78
1 3 300 71822.83
2 3 100 76638.64
2 3 200 80265.13
2 3 300 79734.63
3 3 100 76725.84
3 3 200 78565.38
3 3 300 79559.60
4 3 100 75632.04
4 3 200 77493.77
4 3 300 77684.08
5 3 100 74689.11
5 3 200 76152.30
5 3 300 77499.94
